System
1.0
3.937997069999999 -0.000000010000000 -0.000000000000000
-1.968999040000000 3.410405610000000 0.000000000000000
-0.000000000000000 0.000000000000000 6.945896210000000
Sm Se O
2 1 2
Direct
0.666667000000000 0.333333000000000 0.710555210000000
0.333333000000000 0.666667000000000 0.289444790000000
-0.000000000000000 -0.000000000000000 -0.000000000000000
0.666667000000000 0.333333000000000 0.374494300000000
0.333333000000000 0.666667000000000 0.625505699999999