System
1.0
3.891663380000000 -0.000000000000000 2.246854050000000
1.297220460000000 3.669096040000000 2.246854050000000
0.000000000000000 0.000000000000000 4.493707090000000
Mg Fe H
2 1 6
Direct
0.250000000000000 0.250000000000000 0.250000000000000
0.750000000000000 0.750000000000000 0.750000000000000
-0.000000000000000 -0.000000000000000 -0.000000000000000
0.242974030000000 0.757025970000000 0.757025970000000
0.242974030000000 0.757025970000000 0.242974030000000
0.757025970000000 0.242974030000000 0.757025970000000
0.757025970000000 0.242974030000000 0.242974030000000
0.757025970000000 0.757025970000000 0.242974030000000
0.242974030000000 0.242974030000000 0.757025970000000