System
1.0
4.040835150000000 0.000000010000000 -0.000000000000000
-2.020417060000000 3.499465220000000 0.000000000000000
0.000000000000000 0.000000000000000 7.098840340000000
Pr Se O
2 1 2
Direct
0.666667000000000 0.333333000000000 0.711972730000000
0.333333000000000 0.666667000000000 0.288027270000000
-0.000000000000000 -0.000000000000000 -0.000000000000000
0.333333000000000 0.666667000000000 0.625599570000000
0.666667000000000 0.333333000000000 0.374400430000000