System
1.0
3.816446990000000 -0.000018560000000 0.000035850000000
-1.908239120000000 3.305172640000000 -0.000063290000000
0.000152260000000 -0.000234550000000 12.281192500000000
La Ag O
2 2 4
Direct
0.000007590000000 0.000107740000000 0.999998140000000
0.999996480000000 0.999963760000000 0.500002540000000
0.333319670000000 0.666666730000000 0.249999990000000
0.666675240000000 0.333351690000000 0.749999770000000
0.333330040000000 0.666761690000000 0.084161110000000
0.333324770000000 0.666615780000000 0.415839099999999
0.666669630000000 0.333317310000000 0.584163250000000
0.666677580000000 0.333416290000000 0.915836099999999