System
1.0
5.273982180000000 -0.000000000000000 -0.000000000000000
-0.000000000000000 5.273982180000000 0.000000000000000
0.000000000000000 -0.000000000000000 5.273982180000000
Au S
4 2
Direct
0.500000000000000 0.500000000000000 0.000000000000000
0.000000000000000 0.500000000000000 0.500000000000000
0.500000000000000 -0.000000000000000 0.500000000000000
0.000000000000000 0.000000000000000 -0.000000000000000
0.250000000000000 0.250000000000000 0.250000000000000
0.750000000000000 0.750000000000000 0.750000000000000