System
1.0
3.717305870000000 0.000000000000000 0.000000000000000
-1.858652940000000 3.219282880000000 -0.000000000000000
0.000000000000000 -0.000000000000000 5.820074020000000
Pt Se
1 2
Direct
0.000000000000000 0.000000000000000 -0.000000000000000
0.666667000000000 0.333333000000000 0.774611840000000
0.333333000000000 0.666667000000000 0.225388160000000