System
1.0
2.786499470000000 -2.786473780000000 -0.012851570000000
-0.000113000000000 -5.573047230000000 0.000011020000000
-0.027978830000000 5.573036990000000 -9.326058249999999
Bi Br O
3 1 4
Direct
0.519078510000000 0.764761050000000 0.274374000000000
0.523391440000000 0.213882020000000 0.725636440000000
0.521295650000000 0.989283020000000 0.000019890000000
0.520466120000000 0.490029260000000 0.499992690000000
0.019857950000000 0.148545510000000 0.158555520000000
0.022564830000000 0.330094670000000 0.841450100000000
0.022548770000000 0.830140170000000 0.841436390000000
0.019888730000000 0.648548300000000 0.158532970000000