System
1.0
8.072060820000001 -2.199993460000000 -0.004921890000000
8.072060820000001 2.199993460000000 -0.004921890000000
7.474760270000000 -0.000000000000000 3.758473090000000
Rb Pr Se
1 1 2
Direct
-0.000000000000000 -0.000000000000000 -0.000000000000000
0.500000000000000 0.500000000000000 0.500000000000000
0.234420780000000 0.234420780000000 0.234420780000000
0.765579220000000 0.765579220000000 0.765579220000000