System
1.0
-3.945531270000000 0.000000000000000 -1.467199330000000
0.545598880000000 -3.907626230000000 -1.467199330000000
-0.016889710000000 -0.019411850000000 6.084098300000000
Li Au O
2 2 4
Direct
0.250000000000000 0.750000000000000 0.500000000000000
0.000000000000000 0.000000000000000 0.000000000000000
0.500000000000000 0.500000000000000 0.000000000000000
0.750000000000000 0.250000000000000 0.500000000000000
0.125000000000000 0.629928830000000 0.750000000000000
0.625000000000000 0.120071170000000 0.750000000000000
0.370071170000000 0.875000000000000 0.250000000000000
0.879928830000000 0.375000000000000 0.250000000000000