System
1.0
-1.976528270000000 -3.423447360000000 0.000000000000000
1.976528270000000 -3.423447360000000 0.000000000000000
0.000000000000000 -2.282298580000000 7.498088990000000
Tm Tl S
1 1 2
Direct
-0.000000000000000 -0.000000000000000 0.000000000000000
0.500000000000000 0.500000000000000 0.500000000000000
0.268239460000000 0.268239460000000 0.195282630000000
0.731760540000000 0.731760540000000 0.804717370000000