System
1.0
3.586478340000000 -0.000000000000000 2.070653930000000
1.195492780000000 3.381364510000000 2.070653930000000
-0.000000000000000 -0.000000000000000 4.141308870000000
Ti Co Sb
1 1 1
Direct
-0.000000000000000 0.000000000000000 -0.000000000000000
0.250000000000000 0.250000000000000 0.250000000000000
0.500000000000000 0.500000000000000 0.500000000000000