System
1.0
3.188929890000000 -0.000000000000000 0.000000000000000
-1.594465450000000 2.761695190000000 0.000000000000000
0.000000000000000 0.000000000000000 5.192357250000000
Ga N
2 2
Direct
0.666667000000000 0.333333000000000 0.499083710000000
0.333333000000000 0.666667000000000 0.999083710000000
0.666667000000000 0.333333000000000 0.875916290000000
0.333333000000000 0.666667000000000 0.375916290000000