System
1.0
3.910541100000000 -0.001538450000000 0.000239340000000
-1.955040690000000 0.149974860000000 4.710092770000000
0.003018290000000 -6.425172310000000 7.911793630000000
Mg S
2 4
Direct
0.694339910000000 0.388863730000000 0.111052650000000
0.694478970000000 0.389060520000000 0.611065180000000
0.114362399999999 0.228807370000000 0.327228750000000
0.274559340000000 0.548891790000000 0.395048570000000
0.114343350000000 0.228758799999999 0.827253930000000
0.274582020000000 0.548951780000000 0.895018920000000