System
1.0
3.351494580000000 -0.000000000000000 1.934985770000000
1.117164860000000 3.159818910000000 1.934985770000000
-0.000000000000000 -0.000000000000000 3.869972540000000
Al P
1 1
Direct
0.000000000000000 -0.000000000000000 0.000000000000000
0.250000000000000 0.250000000000000 0.250000000000000