System
1.0
4.692511430000000 0.046600460000000 3.174248230000000
1.709364380000000 4.370325700000000 3.174273239999999
0.067526560000000 0.046557910000000 5.664888070000000
Ti Cd F
1 1 6
Direct
0.500000000000000 0.500000000000000 0.500000000000000
0.000000000000000 -0.000000000000000 -0.000000000000000
0.857443950000000 0.593944490000000 0.276264070000000
0.723735930000000 0.142556050000000 0.406055510000000
0.276264070000000 0.857443950000000 0.593944490000000
0.593944490000000 0.276264070000000 0.857443950000000
0.142556050000000 0.406055510000000 0.723735930000000
0.406055510000000 0.723735930000000 0.142556050000000