System
1.0
4.063758430000000 -0.000000000000000 0.000000000000000
-2.031879720000000 3.519317510000000 0.000000000000000
-0.000000000000000 -0.000000000000000 10.145535199999999
K Zn P
2 2 2
Direct
0.000000000000000 0.000000000000000 0.500000000000000
0.000000000000000 0.000000000000000 -0.000000000000000
0.333333000000000 0.666667000000000 0.750000000000000
0.666667000000000 0.333333000000000 0.250000000000000
0.666667000000000 0.333333000000000 0.750000000000000
0.333333000000000 0.666667000000000 0.250000000000000