System
1.0
3.128588000000000 0.000000000000000 0.000000000000000
-1.564293999999999 2.709437000000000 0.000000000000000
0.000000000000000 0.000000000000000 5.016955000000000
Al N
2 2
Direct
0.666667000000000 0.333333000000000 0.499287000000000
0.333333000000000 0.666667000000000 0.999286999999999
0.666667000000000 0.333333000000000 0.880713000000000
0.333333000000000 0.666667000000000 0.380712999999999