System
1.0
-2.174734280000000 -3.766747709999999 -0.000000010000000
-4.349465460000000 -0.000000030000000 -0.000000010000000
-2.174734280000000 -1.255582920000000 -7.699714010000000
Pr Tl Se
1 1 2
Direct
-0.000000000000000 -0.000000000000000 0.000000000000000
0.500000000000000 0.500000000000000 0.500000000000000
0.737685590000000 0.737685590000000 0.786943220000000
0.262314410000000 0.262314410000000 0.213056780000000