System
1.0
1.866670910000000 -3.233169550000000 0.000000000000000
1.866670910000000 3.233169550000000 -0.000000000000000
0.000000000000000 0.000000000000000 3.823377060000000
Lu H Se
1 1 1
Direct
0.000000000000000 0.000000000000000 0.000000000000000
0.333333000000000 0.666667000000000 -0.000000000000000
0.666667000000000 0.333333000000000 0.500000000000000