System
1.0
4.230507160000000 0.000000000000000 0.000000000000000
0.000000000000000 5.982494800000000 0.000000000000000
0.000000000000000 0.000000000000000 8.433193930000000
Pb S
4 4
Direct
0.750000000000000 0.750088760000000 0.123764940000000
0.750000000000000 0.749911240000000 0.623764940000000
0.250000000000000 0.249911240000000 0.876235060000000
0.250000000000000 0.250088760000000 0.376235060000000
0.250000000000000 0.750949030000000 0.874756340000000
0.250000000000000 0.749050970000000 0.374756340000000
0.750000000000000 0.249050970000000 0.125243660000000
0.750000000000000 0.250949030000000 0.625243660000000