System
1.0
8.306804570000001 -2.310399170000000 -0.010506820000000
8.306804570000001 2.310399170000000 -0.010506820000000
7.669202550000000 -0.000000000000000 3.940099340000000
K Nd Te
1 1 2
Direct
0.500000000000000 0.500000000000000 0.500000000000000
0.000000000000000 0.000000000000000 -0.000000000000000
0.261430470000000 0.261430470000000 0.261430470000000
0.738569530000000 0.738569530000000 0.738569530000000