System
1.0
1.961475000000000 -3.397374000000000 0.000000000000000
1.961475000000000 3.397374000000000 0.000000000000000
0.000000000000000 0.000000000000000 8.369586000000000
Nd C N O
2 1 2 2
Direct
0.666667000000000 0.333333000000000 0.819585999999999
0.333333000000000 0.666667000000000 0.180414000000000
0.000000000000000 0.000000000000000 0.500000000000000
0.000000000000000 0.000000000000000 0.352136000000000
0.000000000000000 0.000000000000000 0.647864000000000
0.666667000000000 0.333333000000000 0.103513000000000
0.333333000000000 0.666667000000000 0.896486999999999