System
1.0
3.703649380000000 0.000000000000000 2.138303460000000
1.234549460000000 3.491833900000000 2.138303460000000
0.000000010000000 0.000000010000000 4.276604870000000
Sr S
1 1
Direct
-0.000000000000000 0.000000000000000 0.000000000000000
0.500000000000000 0.500000000000000 0.500000000000000