System
1.0
3.294028050000000 0.000000000000000 -0.000000000000000
-1.647013520000000 0.950903680000000 5.450603140000000
1.647013520000000 -2.852711050000000 -0.000000000000000
Na Lu O
1 1 2
Direct
-0.000000000000000 -0.000000000000000 -0.000000000000000
0.500000000000000 0.500000000000000 0.500000000000000
0.236279670000000 0.708839020000000 0.236279670000000
0.763720330000000 0.291160980000000 0.763720330000000