System
1.0
4.503482410000000 0.016007360000000 0.079847220000000
0.078726240000000 4.502822790000000 0.079847230000000
0.016231440000000 0.016007380000000 4.504160720000000
Tl I O
1 1 3
Direct
0.991249150000000 0.991249150000000 0.991249150000000
0.498132670000000 0.498132670000000 0.498132670000000
0.538102910000000 0.096712350000000 0.538102910000000
0.096712350000000 0.538102910000000 0.538102910000000
0.538102910000000 0.538102910000000 0.096712350000000