System
1.0
3.594378040000000 0.043920690000000 5.339492820000000
1.662210360000000 3.187246950000000 5.339492800000000
0.071451490000000 0.043920680000000 6.436197480000000
Mn Cl
1 2
Direct
0.000000000000000 -0.000000000000000 0.000000000000000
0.742797800000000 0.742797800000000 0.742797800000000
0.257202200000000 0.257202200000000 0.257202200000000