System
1.0
4.528965070000000 -0.000000010000000 0.000000000000000
-2.264483050000000 3.922199580000000 0.000000000000000
0.000000000000000 -0.000000000000000 7.209829960000000
Ca I
1 2
Direct
-0.000000000000000 -0.000000000000000 0.000000000000000
0.333333000000000 0.666667000000000 0.244302370000000
0.666667000000000 0.333333000000000 0.755697630000000