System
1.0
7.771599550000000 -2.108375720000000 -0.002649990000000
7.771599550000000 2.108375720000000 -0.002649990000000
7.200842590000000 -0.000000000000000 3.604284840000000
Rb Nd S
1 1 2
Direct
0.000000000000000 0.000000000000000 -0.000000000000000
0.500000000000000 0.500000000000000 0.500000000000000
0.767226150000000 0.767226150000000 0.767226150000000
0.232773850000000 0.232773850000000 0.232773850000000