System
1.0
0.000000000000000 4.160589730000000 0.000000000000000
4.160589730000000 0.000000000000000 0.000000000000000
2.080293850000000 2.080293850000000 -6.777894790000000
Ba Hf O
2 1 4
Direct
0.352560680000000 0.352560680000000 0.294876650000000
0.647439320000000 0.647439320000000 0.705123350000000
0.000000000000000 0.000000000000000 -0.000000000000000
0.500000000000000 0.000000000000000 -0.000000000000000
0.000000000000000 0.500000000000000 -0.000000000000000
0.154612200000000 0.154612200000000 0.690775610000000
0.845387799999999 0.845387799999999 0.309224390000000