System
1.0
2.582361770000000 4.474190410000000 -0.107151990000000
-2.582361770000000 4.474190410000000 0.107151990000000
-1.493374640000000 0.000000000000000 9.674356740000000
Te O
4 12
Direct
0.166431810000000 0.666470500000000 0.499950980000000
0.333529500000000 0.833568190000000 0.999950980000000
0.666470500000000 0.166431810000000 0.000049020000000
0.833568190000000 0.333529500000000 0.500049020000000
0.162225710000000 0.958751160000000 0.612149790000000
0.578442680000000 0.921566040000000 0.887180800000000
0.337458690000000 0.541089480000000 0.887992620000000
0.041248840000000 0.837774290000000 0.112149790000000
0.078433960000000 0.421557320000000 0.387180800000000
0.458910520000000 0.662541310000000 0.387992620000000
0.541089480000000 0.337458690000000 0.612007380000000
0.921566040000000 0.578442680000000 0.612819200000000
0.958751160000000 0.162225710000000 0.887850210000000
0.662541310000000 0.458910520000000 0.112007380000000
0.421557320000000 0.078433960000000 0.112819200000000
0.837774290000000 0.041248840000000 0.387850210000000