System
1.0
5.741605580000000 -1.922743650000000 -0.004120610000000
5.741605580000000 1.922743650000000 -0.004120610000000
5.100063780000000 -0.000000000000000 3.263792830000000
La Cu O
1 1 2
Direct
0.500000000000000 0.500000000000000 0.500000000000000
-0.000000000000000 -0.000000000000000 -0.000000000000000
0.893597699999999 0.893597699999999 0.893597699999999
0.106402299999999 0.106402299999999 0.106402299999999