System
1.0
4.033793140000000 0.001180290000000 0.010335850000000
0.010312110000000 4.033779470000000 0.010335840000000
0.001183899999999 0.001180300000000 4.033805800000000
Ba Ti O
1 1 3
Direct
0.999853960000000 0.999853960000000 0.999853960000000
0.486662290000000 0.486662290000000 0.486662290000000
0.020283370000000 0.511049690000000 0.511049690000000
0.511049690000000 0.511049690000000 0.020283370000000
0.511049690000000 0.020283370000000 0.511049690000000