System
1.0
4.638127590000000 0.000948580000000 0.102254930000000
0.100046370000000 4.637048280000000 0.102254920000000
0.000969730000000 0.000948580000000 4.639253840000000
Cs Br O
1 1 3
Direct
0.002051660000000 0.002051660000000 0.002051660000000
0.469271950000000 0.469271950000000 0.469271950000000
0.114680899999999 0.521532750000000 0.521532750000000
0.521532750000000 0.521532750000000 0.114680899999999
0.521532750000000 0.114680899999999 0.521532750000000