System
1.0
1.906749060000000 1.100861750000000 6.302261000000000
-1.906749060000000 1.100861750000000 6.302261000000000
0.000000000000000 -2.201723500000000 6.302261000000000
Sr H N
2 1 1
Direct
0.761255880000000 0.761255880000000 0.761255880000000
0.238744120000000 0.238744120000000 0.238744120000000
-0.000000000000000 -0.000000000000000 -0.000000000000000
0.500000000000000 0.500000000000000 0.500000000000000