System
1.0
1.939097220000000 -3.358613210000000 0.000000000000000
1.939097220000000 3.358613210000000 -0.000000000000000
-0.000000000000000 -0.000000000000000 11.069453420000000
Y C I
2 1 2
Direct
0.333333000000000 0.666667000000000 0.118283300000000
0.666667000000000 0.333333000000000 0.881716699999999
-0.000000000000000 -0.000000000000000 0.000000000000000
0.333333000000000 0.666667000000000 0.686990210000000
0.666667000000000 0.333333000000000 0.313009790000000