System
1.0
0.000000000000000 3.496077550000000 3.496077550000000
3.496077550000000 -0.000000000000000 3.496077550000000
3.496077550000000 3.496077550000000 0.000000000000000
Ca Fe H
2 1 6
Direct
0.250000000000000 0.250000000000000 0.250000000000000
0.750000000000000 0.750000000000000 0.750000000000000
-0.000000000000000 0.000000000000000 0.000000000000000
0.771967350000000 0.228032650000000 0.228032650000000
0.228032650000000 0.771967350000000 0.771967350000000
0.228032650000000 0.771967350000000 0.228032650000000
0.771967350000000 0.228032650000000 0.771967350000000
0.228032650000000 0.228032650000000 0.771967350000000
0.771967350000000 0.771967350000000 0.228032650000000