System
1.0
4.219273930000000 -0.000000000000000 0.000000000000000
-2.109637470000000 3.653997830000000 -0.000000000000000
-0.000000000000000 0.000000000000000 7.547057530000000
Li P
6 2
Direct
0.000000000000000 0.000000000000000 0.250000000000000
-0.000000000000000 -0.000000000000000 0.750000000000000
0.333333000000000 0.666667000000000 0.583601810000000
0.666667000000000 0.333333000000000 0.083601810000000
0.666667000000000 0.333333000000000 0.416398190000000
0.333333000000000 0.666667000000000 0.916398190000000
0.333333000000000 0.666667000000000 0.250000000000000
0.666667000000000 0.333333000000000 0.750000000000000