System
1.0
3.771297890000000 0.000000000000000 2.177360320000000
1.257099300000000 3.555612900000000 2.177360320000000
0.000000010000000 0.000000000000000 4.354718610000000
Ta Sb Ru
1 1 1
Direct
0.000000000000000 0.000000000000000 0.000000000000000
0.500000000000000 0.500000000000000 0.500000000000000
0.250000000000000 0.250000000000000 0.250000000000000