System
1.0
7.396252480000000 -2.009066310000000 -0.004234140000000
7.396252480000000 2.009066310000000 -0.004234140000000
6.852491090000000 -0.000000000000000 3.432823860000000
K Ho S
1 1 2
Direct
0.500000000000000 0.500000000000000 0.500000000000000
0.000000000000000 0.000000000000000 -0.000000000000000
0.733868440000000 0.733868440000000 0.733868440000000
0.266131560000000 0.266131560000000 0.266131560000000