System
1.0
4.564465580000000 0.038931090000000 3.073768550000000
1.656114100000000 4.253604970000000 3.073767920000000
0.056417460000000 0.038931020000000 5.502655110000000
Zn Sn F
1 1 6
Direct
0.500000000000000 0.500000000000000 0.500000000000000
0.000000000000000 0.000000000000000 -0.000000000000000
0.247663420000000 0.886123440000000 0.619156220000000
0.886123440000000 0.619156220000000 0.247663420000000
0.380843780000000 0.752336580000000 0.113876560000000
0.113876560000000 0.380843780000000 0.752336580000000
0.752336580000000 0.113876560000000 0.380843780000000
0.619156220000000 0.247663420000000 0.886123440000000