System
1.0
6.844504560000000 -2.019012460000000 -0.000709910000000
6.844504560000000 2.019012460000000 -0.000709910000000
6.249287490000000 -0.000000000000000 3.445296030000000
Na Bi S
1 1 2
Direct
0.500000000000000 0.500000000000000 0.500000000000000
0.000000000000000 0.000000000000000 -0.000000000000000
0.253523310000000 0.253523310000000 0.253523310000000
0.746476690000000 0.746476690000000 0.746476690000000