System
1.0
4.370441860000000 0.048443870000000 2.864131610000000
1.572176569999999 4.078157850000000 2.864131610000000
0.069762610000000 0.048443870000000 5.224858230000000
Ga F
2 6
Direct
0.500000000000000 0.500000000000000 0.500000000000000
-0.000000000000000 0.000000000000000 0.000000000000000
0.250000000000000 0.623846640000000 0.876153360000000
0.623846640000000 0.876153360000000 0.250000000000000
0.123846640000000 0.750000000000000 0.376153360000000
0.376153360000000 0.123846640000000 0.750000000000000
0.750000000000000 0.376153360000000 0.123846640000000
0.876153360000000 0.250000000000000 0.623846640000000