System
1.0
3.469019850000000 0.000000000000000 2.002839390000000
1.156339950000000 3.270622480000000 2.002839390000000
-0.000000000000000 -0.000000000000000 4.005678770000000
Zn Se
1 1
Direct
-0.000000000000000 0.000000000000000 -0.000000000000000
0.250000000000000 0.250000000000000 0.250000000000000