System
1.0
3.505191000000000 0.000000000000000 0.000000000000000
1.752595000000000 3.035584000000000 0.000000000000000
1.752595000000000 1.011861000000000 2.861977000000000
Li Mg N
1 1 1
Direct
0.750000000000000 0.750000000000000 0.750000000000000
0.250000000000000 0.250000000000000 0.250000000000000
0.000000000000000 0.000000000000000 0.000000000000000