System
1.0
3.494303670000000 -0.000000000000000 -0.000000000000000
-1.747151840000000 3.026154900000000 0.000000000000000
-0.000000000000000 0.000000000000000 5.971378780000000
Li Cr S
1 1 2
Direct
0.000000000000000 -0.000000000000000 0.500000000000000
0.000000000000000 -0.000000000000000 0.000000000000000
0.666667000000000 0.333333000000000 0.776364540000000
0.333333000000000 0.666667000000000 0.223635460000000