System
1.0
4.246699320000000 -0.000000000000000 -0.000000000000000
0.000000000000000 4.246699320000000 -0.000000000000000
-0.000000000000000 0.000000000000000 4.246699320000000
Cu O
4 2
Direct
0.500000000000000 0.500000000000000 -0.000000000000000
-0.000000000000000 0.500000000000000 0.500000000000000
0.500000000000000 -0.000000000000000 0.500000000000000
0.000000000000000 0.000000000000000 0.000000000000000
0.750000000000000 0.750000000000000 0.750000000000000
0.250000000000000 0.250000000000000 0.250000000000000