System
1.0
4.168838140000000 0.000000000000000 0.000000000000000
-2.084419070000000 3.610319640000000 0.000000000000000
0.000000000000000 0.000000000000000 6.779617410000000
Cd S
2 2
Direct
0.666667000000000 0.333333000000000 0.500224370000000
0.333333000000000 0.666667000000000 0.000224370000000
0.666667000000000 0.333333000000000 0.876775630000000
0.333333000000000 0.666667000000000 0.376775630000000