System
1.0
4.451546400000000 0.000000000000000 0.000000000000000
-2.225773200000000 3.855154160000000 0.000000000000000
-0.000000000000000 0.000000000000000 10.175802780000000
Na S
4 4
Direct
0.000000000000000 -0.000000000000000 0.000000000000000
0.000000000000000 -0.000000000000000 0.500000000000000
0.333333000000000 0.666667000000000 0.250000000000000
0.666667000000000 0.333333000000000 0.750000000000000
0.333333000000000 0.666667000000000 0.644189120000000
0.666667000000000 0.333333000000000 0.144189120000000
0.666667000000000 0.333333000000000 0.355810880000000
0.333333000000000 0.666667000000000 0.855810880000000