System
1.0
7.110517030000000 -2.058312140000000 -0.001907640000000
7.110517030000000 2.058312140000000 -0.001907640000000
6.515631190000000 0.000000000000000 3.513211190000000
Na Sb Se
1 1 2
Direct
0.000000000000000 -0.000000000000000 -0.000000000000000
0.500000000000000 0.500000000000000 0.500000000000000
0.244986820000000 0.244986820000000 0.244986820000000
0.755013180000000 0.755013180000000 0.755013180000000