System
1.0
-3.922549000000000 -3.922549000000000 0.000000000000000
-3.922549000000000 0.000000000000000 -3.922549000000000
0.000000000000000 -3.922549000000000 -3.922549000000000
Ba Na H Ir
1 1 6 1
Direct
0.250000000000000 0.250000000000000 0.250000000000000
0.750000000000000 0.750000000000000 0.750000000000000
0.784972999999999 0.784972999999999 0.215027000000000
0.784972999999999 0.215027000000000 0.784972999999999
0.784972999999999 0.215027000000000 0.215027000000000
0.215027000000000 0.215027000000000 0.784972999999999
0.215027000000000 0.784972999999999 0.215027000000000
0.215027000000000 0.784972999999999 0.784972999999999
0.000000000000000 0.000000000000000 0.000000000000000